8 2 10 -1 1 1 10 5 4 -1 
1 9 6 5 5 -1 8 7 -1 -1 
7 8 9 1 9 4 5 -1 10 -1 
8 1 9 10 9 4 5 10 0 -1 
4 3 6 7 6 7 10 2 9 -1 
6 1 9 2 0 10 7 4 4 -1 
2 6 9 5 -1 2 0 0 5 -1 
0 8 0 1 6 5 4 6 -1 -1 
7 8 9 10 2 6 3 4 10 -1 
-1 4 -1 -1 7 -1 9 4 8 -1 
